shikaku_converter/resources/tasks/weekly_special.txt
e16n6h7_2b2g4f6d6e2_2_3_8b12f2a2b7k2f3b6_3o4_6b2_2c3d3d4e5f36i9f2x48a5j12b2p16j12zc3z2i2c9zc4b5l3a4c12d8_5g64f30e8_26d8r66z5e15x8p5zb2i3c4n2a3s5g2o2u8b6m2w13f2j3g6e27n12h4k3f120v3r7e12zv55g2_5zc2d72b48u2v52ze5_2b2_2zc2u4g4q2d4e3b2m3d12b20_8zd2_3d3m3a10_3b3e10a2t4a4m13_2m2b2b2b4f